GeneratedTests/Random_9/Random_9_15.tsp
NAME: Random_9_15
TYPE: TSP
DIMENSION: 9
EDGE_WEIGHT_TYPE: EUC_2D
NODE_COORD_SECTION
1 14.109334 0.18202919
2 24.598541 3.3734148
3 14.122485 7.740408
4 6.2146726 9.148291
5 15.327429 11.887514
6 17.954979 22.066319
7 13.164977 21.425081
8 4.6184325 22.173363
9 8.035677 11.657122
EOF
