GeneratedTests/Random_9/Random_9_15.txt
NAME: Random_9_15
TYPE: TSP
DIMENSION: 9
EDGE_WEIGHT_TYPE: EUC_2D
NODE_COORD_SECTION
1 25.667643 5.4493914
2 10.893228 7.6850405
3 6.22891 13.36093
4 17.368546 7.5915885
5 3.6430445 3.9973214
6 13.773028 25.83826
7 23.498617 15.159988
8 20.870598 16.950296
9 4.783725 14.816496
EOF
